Traveling Salesman Problem/TSP_generados/Aleatorio1621103255_6.tsp
NAME: Aleatorio1621103255_6.tsp
COMMENT: Randomly generated scenario
TYPE: TSP
DIMENSION: 6
EDGE_WEIGHT_TYPE: ATT
NODE_COORD_SECTION
1 10.51 13.64
2 15.84 34.95
3 4.9 46.21
4 0.97 46.78
5 16.56 27.27
6 35.58 2.28
