Traveling Salesman Problem/TSP_generados/Aleatorio1621103255_6.opt.tour
NAME: Aleatorio1621103255_6.opt.tour
COMMENT: Optimal solution for Aleatorio1621103255_6 (120.7985023823826)
TYPE: TOUR
DIMENSION: 6
TOUR_SECTION
1 4 3 2 5 6
-1
EOF
